Route #1: 57 94 64 105 69 17 2 77 67
Route #2: 74 99 11 34 72 29 96
Route #3: 49 21 85 54 13 40 31 63 82
Route #4: 45 100 51 60 76 15 44
Route #5: 53 103 101 28 93 97 43 87
Route #6: 14 58 88 91 36 8 48 83
Route #7: 1 104 12 9 84 75 7
Route #8: 5 92 102 24 90 26 62
Route #9: 22 52 33
Route #10: 66 46 71 79 37 27 19 78
Route #11: 86 18 41 10 16 20 56
Route #12: 59 89 30 42 23 3 32 73 35
Route #13: 55 98 4 70 6 81 50 39
Route #14: 25 47 61 80 65 38 95 68
Cost 26421
